; benchmark generated from python API
(set-info :status unknown)
(declare-fun cell_1_3 () Int)
(declare-fun cell_1_6 () Int)
(declare-fun cell_2_6 () Int)
(declare-fun cell_2_8 () Int)
(declare-fun cell_3_3 () Int)
(declare-fun cell_3_9 () Int)
(declare-fun cell_4_4 () Int)
(declare-fun cell_4_5 () Int)
(declare-fun cell_5_1 () Int)
(declare-fun cell_5_8 () Int)
(declare-fun cell_6_1 () Int)
(declare-fun cell_6_9 () Int)
(declare-fun cell_7_2 () Int)
(declare-fun cell_7_4 () Int)
(declare-fun cell_8_2 () Int)
(declare-fun cell_8_7 () Int)
(declare-fun cell_9_5 () Int)
(declare-fun cell_9_7 () Int)
(declare-fun cell_1_1 () Int)
(declare-fun cell_2_1 () Int)
(declare-fun cell_3_1 () Int)
(declare-fun cell_4_1 () Int)
(declare-fun cell_7_1 () Int)
(declare-fun cell_8_1 () Int)
(declare-fun cell_9_1 () Int)
(declare-fun cell_1_2 () Int)
(declare-fun cell_2_2 () Int)
(declare-fun cell_3_2 () Int)
(declare-fun cell_4_2 () Int)
(declare-fun cell_5_2 () Int)
(declare-fun cell_6_2 () Int)
(declare-fun cell_9_2 () Int)
(declare-fun cell_2_3 () Int)
(declare-fun cell_4_3 () Int)
(declare-fun cell_5_3 () Int)
(declare-fun cell_6_3 () Int)
(declare-fun cell_7_3 () Int)
(declare-fun cell_8_3 () Int)
(declare-fun cell_9_3 () Int)
(declare-fun cell_1_4 () Int)
(declare-fun cell_2_4 () Int)
(declare-fun cell_3_4 () Int)
(declare-fun cell_5_4 () Int)
(declare-fun cell_6_4 () Int)
(declare-fun cell_8_4 () Int)
(declare-fun cell_9_4 () Int)
(declare-fun cell_1_5 () Int)
(declare-fun cell_2_5 () Int)
(declare-fun cell_3_5 () Int)
(declare-fun cell_5_5 () Int)
(declare-fun cell_6_5 () Int)
(declare-fun cell_7_5 () Int)
(declare-fun cell_8_5 () Int)
(declare-fun cell_3_6 () Int)
(declare-fun cell_4_6 () Int)
(declare-fun cell_5_6 () Int)
(declare-fun cell_6_6 () Int)
(declare-fun cell_7_6 () Int)
(declare-fun cell_8_6 () Int)
(declare-fun cell_9_6 () Int)
(declare-fun cell_1_7 () Int)
(declare-fun cell_2_7 () Int)
(declare-fun cell_3_7 () Int)
(declare-fun cell_4_7 () Int)
(declare-fun cell_5_7 () Int)
(declare-fun cell_6_7 () Int)
(declare-fun cell_7_7 () Int)
(declare-fun cell_1_8 () Int)
(declare-fun cell_3_8 () Int)
(declare-fun cell_4_8 () Int)
(declare-fun cell_6_8 () Int)
(declare-fun cell_7_8 () Int)
(declare-fun cell_8_8 () Int)
(declare-fun cell_9_8 () Int)
(declare-fun cell_1_9 () Int)
(declare-fun cell_2_9 () Int)
(declare-fun cell_4_9 () Int)
(declare-fun cell_5_9 () Int)
(declare-fun cell_7_9 () Int)
(declare-fun cell_8_9 () Int)
(declare-fun cell_9_9 () Int)
(assert
 (= cell_1_3 1))
(assert
 (= cell_1_6 2))
(assert
 (= cell_2_6 1))
(assert
 (= cell_2_8 2))
(assert
 (= cell_3_3 2))
(assert
 (= cell_3_9 1))
(assert
 (= cell_4_4 2))
(assert
 (= cell_4_5 1))
(assert
 (= cell_5_1 2))
(assert
 (= cell_5_8 1))
(assert
 (= cell_6_1 1))
(assert
 (= cell_6_9 2))
(assert
 (= cell_7_2 2))
(assert
 (= cell_7_4 1))
(assert
 (= cell_8_2 1))
(assert
 (= cell_8_7 2))
(assert
 (= cell_9_5 2))
(assert
 (= cell_9_7 1))
(assert
 (let (($x1590 (= cell_1_1 9)))
 (let (($x1563 (= cell_1_1 8)))
 (let (($x2702 (= cell_1_1 7)))
 (let (($x1317 (= cell_1_1 6)))
 (let (($x2858 (= cell_1_1 5)))
 (let (($x3475 (= cell_1_1 4)))
 (let (($x2900 (= cell_1_1 3)))
 (let (($x3560 (= cell_1_1 2)))
 (let (($x591 (= cell_1_1 1)))
 (or $x591 $x3560 $x2900 $x3475 $x2858 $x1317 $x2702 $x1563 $x1590)))))))))))
(assert
 (let (($x2609 (= cell_2_1 9)))
 (let (($x1232 (= cell_2_1 8)))
 (let (($x271 (= cell_2_1 7)))
 (let (($x839 (= cell_2_1 6)))
 (let (($x2519 (= cell_2_1 5)))
 (let (($x1520 (= cell_2_1 4)))
 (let (($x1735 (= cell_2_1 3)))
 (let (($x2094 (= cell_2_1 2)))
 (let (($x1615 (= cell_2_1 1)))
 (or $x1615 $x2094 $x1735 $x1520 $x2519 $x839 $x271 $x1232 $x2609)))))))))))
(assert
 (let (($x1490 (= cell_3_1 9)))
 (let (($x743 (= cell_3_1 8)))
 (let (($x1328 (= cell_3_1 7)))
 (let (($x191 (= cell_3_1 6)))
 (let (($x2450 (= cell_3_1 5)))
 (let (($x733 (= cell_3_1 4)))
 (let (($x1405 (= cell_3_1 3)))
 (let (($x1407 (= cell_3_1 2)))
 (let (($x2128 (= cell_3_1 1)))
 (or $x2128 $x1407 $x1405 $x733 $x2450 $x191 $x1328 $x743 $x1490)))))))))))
(assert
 (let (($x2287 (= cell_4_1 9)))
 (let (($x434 (= cell_4_1 8)))
 (let (($x3571 (= cell_4_1 7)))
 (let (($x788 (= cell_4_1 6)))
 (let (($x2367 (= cell_4_1 5)))
 (let (($x2739 (= cell_4_1 4)))
 (let (($x1946 (= cell_4_1 3)))
 (let (($x1820 (= cell_4_1 2)))
 (let (($x424 (= cell_4_1 1)))
 (or $x424 $x1820 $x1946 $x2739 $x2367 $x788 $x3571 $x434 $x2287)))))))))))
(assert
 (let (($x697 (= cell_5_1 2)))
 (or (= cell_5_1 1) $x697 (= cell_5_1 3) (= cell_5_1 4) (= cell_5_1 5) (= cell_5_1 6) (= cell_5_1 7) (= cell_5_1 8) (= cell_5_1 9))))
(assert
 (let (($x683 (= cell_6_1 1)))
 (or $x683 (= cell_6_1 2) (= cell_6_1 3) (= cell_6_1 4) (= cell_6_1 5) (= cell_6_1 6) (= cell_6_1 7) (= cell_6_1 8) (= cell_6_1 9))))
(assert
 (let (($x1752 (= cell_7_1 9)))
 (let (($x235 (= cell_7_1 8)))
 (let (($x2726 (= cell_7_1 7)))
 (let (($x2505 (= cell_7_1 6)))
 (let (($x1675 (= cell_7_1 5)))
 (let (($x2017 (= cell_7_1 4)))
 (let (($x964 (= cell_7_1 3)))
 (let (($x3357 (= cell_7_1 2)))
 (let (($x1629 (= cell_7_1 1)))
 (or $x1629 $x3357 $x964 $x2017 $x1675 $x2505 $x2726 $x235 $x1752)))))))))))
(assert
 (let (($x1465 (= cell_8_1 9)))
 (let (($x2253 (= cell_8_1 8)))
 (let (($x244 (= cell_8_1 7)))
 (let (($x195 (= cell_8_1 6)))
 (let (($x829 (= cell_8_1 5)))
 (let (($x1414 (= cell_8_1 4)))
 (let (($x2214 (= cell_8_1 3)))
 (let (($x3109 (= cell_8_1 2)))
 (let (($x1878 (= cell_8_1 1)))
 (or $x1878 $x3109 $x2214 $x1414 $x829 $x195 $x244 $x2253 $x1465)))))))))))
(assert
 (let (($x724 (= cell_9_1 9)))
 (let (($x3840 (= cell_9_1 8)))
 (let (($x3072 (= cell_9_1 7)))
 (let (($x1813 (= cell_9_1 6)))
 (let (($x1574 (= cell_9_1 5)))
 (let (($x3041 (= cell_9_1 4)))
 (let (($x2695 (= cell_9_1 3)))
 (let (($x1044 (= cell_9_1 2)))
 (let (($x2191 (= cell_9_1 1)))
 (or $x2191 $x1044 $x2695 $x3041 $x1574 $x1813 $x3072 $x3840 $x724)))))))))))
(assert
 (let (($x2342 (= cell_1_2 9)))
 (let (($x95 (= cell_1_2 8)))
 (let (($x3541 (= cell_1_2 7)))
 (let (($x1892 (= cell_1_2 6)))
 (let (($x190 (= cell_1_2 5)))
 (let (($x2209 (= cell_1_2 4)))
 (let (($x581 (= cell_1_2 3)))
 (let (($x3369 (= cell_1_2 2)))
 (let (($x1226 (= cell_1_2 1)))
 (or $x1226 $x3369 $x581 $x2209 $x190 $x1892 $x3541 $x95 $x2342)))))))))))
(assert
 (let (($x2755 (= cell_2_2 9)))
 (let (($x1089 (= cell_2_2 8)))
 (let (($x1593 (= cell_2_2 7)))
 (let (($x99 (= cell_2_2 6)))
 (let (($x2421 (= cell_2_2 5)))
 (let (($x2829 (= cell_2_2 4)))
 (let (($x1539 (= cell_2_2 3)))
 (let (($x1835 (= cell_2_2 2)))
 (let (($x2323 (= cell_2_2 1)))
 (or $x2323 $x1835 $x1539 $x2829 $x2421 $x99 $x1593 $x1089 $x2755)))))))))))
(assert
 (let (($x1686 (= cell_3_2 9)))
 (let (($x198 (= cell_3_2 8)))
 (let (($x1195 (= cell_3_2 7)))
 (let (($x1952 (= cell_3_2 6)))
 (let (($x270 (= cell_3_2 5)))
 (let (($x89 (= cell_3_2 4)))
 (let (($x2993 (= cell_3_2 3)))
 (let (($x2034 (= cell_3_2 2)))
 (let (($x1546 (= cell_3_2 1)))
 (or $x1546 $x2034 $x2993 $x89 $x270 $x1952 $x1195 $x198 $x1686)))))))))))
(assert
 (let (($x1399 (= cell_4_2 9)))
 (let (($x1055 (= cell_4_2 8)))
 (let (($x2427 (= cell_4_2 7)))
 (let (($x3830 (= cell_4_2 6)))
 (let (($x1712 (= cell_4_2 5)))
 (let (($x1176 (= cell_4_2 4)))
 (let (($x2936 (= cell_4_2 3)))
 (let (($x1648 (= cell_4_2 2)))
 (let (($x1871 (= cell_4_2 1)))
 (or $x1871 $x1648 $x2936 $x1176 $x1712 $x3830 $x2427 $x1055 $x1399)))))))))))
(assert
 (let (($x1030 (= cell_5_2 9)))
 (let (($x628 (= cell_5_2 8)))
 (let (($x1606 (= cell_5_2 7)))
 (let (($x344 (= cell_5_2 6)))
 (let (($x169 (= cell_5_2 5)))
 (let (($x2639 (= cell_5_2 4)))
 (let (($x2551 (= cell_5_2 3)))
 (let (($x506 (= cell_5_2 2)))
 (let (($x1496 (= cell_5_2 1)))
 (or $x1496 $x506 $x2551 $x2639 $x169 $x344 $x1606 $x628 $x1030)))))))))))
(assert
 (let (($x1294 (= cell_6_2 9)))
 (let (($x906 (= cell_6_2 8)))
 (let (($x821 (= cell_6_2 7)))
 (let (($x830 (= cell_6_2 6)))
 (let (($x3371 (= cell_6_2 5)))
 (let (($x1968 (= cell_6_2 4)))
 (let (($x3682 (= cell_6_2 3)))
 (let (($x2549 (= cell_6_2 2)))
 (let (($x903 (= cell_6_2 1)))
 (or $x903 $x2549 $x3682 $x1968 $x3371 $x830 $x821 $x906 $x1294)))))))))))
(assert
 (let (($x814 (= cell_7_2 2)))
 (or (= cell_7_2 1) $x814 (= cell_7_2 3) (= cell_7_2 4) (= cell_7_2 5) (= cell_7_2 6) (= cell_7_2 7) (= cell_7_2 8) (= cell_7_2 9))))
(assert
 (let (($x2292 (= cell_8_2 1)))
 (or $x2292 (= cell_8_2 2) (= cell_8_2 3) (= cell_8_2 4) (= cell_8_2 5) (= cell_8_2 6) (= cell_8_2 7) (= cell_8_2 8) (= cell_8_2 9))))
(assert
 (let (($x7750 (= cell_9_2 9)))
 (let (($x742 (= cell_9_2 8)))
 (let (($x3383 (= cell_9_2 7)))
 (let (($x2614 (= cell_9_2 6)))
 (let (($x2792 (= cell_9_2 5)))
 (let (($x333 (= cell_9_2 4)))
 (let (($x2412 (= cell_9_2 3)))
 (let (($x1911 (= cell_9_2 2)))
 (let (($x753 (= cell_9_2 1)))
 (or $x753 $x1911 $x2412 $x333 $x2792 $x2614 $x3383 $x742 $x7750)))))))))))
(assert
 (let (($x287 (= cell_1_3 1)))
 (or $x287 (= cell_1_3 2) (= cell_1_3 3) (= cell_1_3 4) (= cell_1_3 5) (= cell_1_3 6) (= cell_1_3 7) (= cell_1_3 8) (= cell_1_3 9))))
(assert
 (let (($x1745 (= cell_2_3 9)))
 (let (($x299 (= cell_2_3 8)))
 (let (($x2022 (= cell_2_3 7)))
 (let (($x1218 (= cell_2_3 6)))
 (let (($x2865 (= cell_2_3 5)))
 (let (($x2259 (= cell_2_3 4)))
 (let (($x3574 (= cell_2_3 3)))
 (let (($x682 (= cell_2_3 2)))
 (let (($x579 (= cell_2_3 1)))
 (or $x579 $x682 $x3574 $x2259 $x2865 $x1218 $x2022 $x299 $x1745)))))))))))
(assert
 (let (($x3575 (= cell_3_3 2)))
 (or (= cell_3_3 1) $x3575 (= cell_3_3 3) (= cell_3_3 4) (= cell_3_3 5) (= cell_3_3 6) (= cell_3_3 7) (= cell_3_3 8) (= cell_3_3 9))))
(assert
 (let (($x1495 (= cell_4_3 9)))
 (let (($x101 (= cell_4_3 8)))
 (let (($x1650 (= cell_4_3 7)))
 (let (($x3542 (= cell_4_3 6)))
 (let (($x1899 (= cell_4_3 5)))
 (let (($x501 (= cell_4_3 4)))
 (let (($x2703 (= cell_4_3 3)))
 (let (($x322 (= cell_4_3 2)))
 (let (($x2284 (= cell_4_3 1)))
 (or $x2284 $x322 $x2703 $x501 $x1899 $x3542 $x1650 $x101 $x1495)))))))))))
(assert
 (let (($x228 (= cell_5_3 9)))
 (let (($x2658 (= cell_5_3 8)))
 (let (($x1152 (= cell_5_3 7)))
 (let (($x3060 (= cell_5_3 6)))
 (let (($x1923 (= cell_5_3 5)))
 (let (($x1449 (= cell_5_3 4)))
 (let (($x2067 (= cell_5_3 3)))
 (let (($x1560 (= cell_5_3 2)))
 (let (($x2160 (= cell_5_3 1)))
 (or $x2160 $x1560 $x2067 $x1449 $x1923 $x3060 $x1152 $x2658 $x228)))))))))))
(assert
 (let (($x2517 (= cell_6_3 9)))
 (let (($x1105 (= cell_6_3 8)))
 (let (($x2030 (= cell_6_3 7)))
 (let (($x48 (= cell_6_3 6)))
 (let (($x494 (= cell_6_3 5)))
 (let (($x1797 (= cell_6_3 4)))
 (let (($x2626 (= cell_6_3 3)))
 (let (($x471 (= cell_6_3 2)))
 (let (($x942 (= cell_6_3 1)))
 (or $x942 $x471 $x2626 $x1797 $x494 $x48 $x2030 $x1105 $x2517)))))))))))
(assert
 (let (($x3136 (= cell_7_3 9)))
 (let (($x1463 (= cell_7_3 8)))
 (let (($x461 (= cell_7_3 7)))
 (let (($x203 (= cell_7_3 6)))
 (let (($x3031 (= cell_7_3 5)))
 (let (($x2008 (= cell_7_3 4)))
 (let (($x917 (= cell_7_3 3)))
 (let (($x4061 (= cell_7_3 2)))
 (let (($x117 (= cell_7_3 1)))
 (or $x117 $x4061 $x917 $x2008 $x3031 $x203 $x461 $x1463 $x3136)))))))))))
(assert
 (let (($x53 (= cell_8_3 9)))
 (let (($x3215 (= cell_8_3 8)))
 (let (($x2064 (= cell_8_3 7)))
 (let (($x11 (= cell_8_3 6)))
 (let (($x2773 (= cell_8_3 5)))
 (let (($x1981 (= cell_8_3 4)))
 (let (($x3014 (= cell_8_3 3)))
 (let (($x390 (= cell_8_3 2)))
 (let (($x359 (= cell_8_3 1)))
 (or $x359 $x390 $x3014 $x1981 $x2773 $x11 $x2064 $x3215 $x53)))))))))))
(assert
 (let (($x2571 (= cell_9_3 9)))
 (let (($x856 (= cell_9_3 8)))
 (let (($x640 (= cell_9_3 7)))
 (let (($x1633 (= cell_9_3 6)))
 (let (($x3338 (= cell_9_3 5)))
 (let (($x2826 (= cell_9_3 4)))
 (let (($x2201 (= cell_9_3 3)))
 (let (($x1502 (= cell_9_3 2)))
 (let (($x2635 (= cell_9_3 1)))
 (or $x2635 $x1502 $x2201 $x2826 $x3338 $x1633 $x640 $x856 $x2571)))))))))))
(assert
 (let (($x2785 (= cell_1_4 9)))
 (let (($x2122 (= cell_1_4 8)))
 (let (($x3449 (= cell_1_4 7)))
 (let (($x2849 (= cell_1_4 6)))
 (let (($x2752 (= cell_1_4 5)))
 (let (($x2613 (= cell_1_4 4)))
 (let (($x294 (= cell_1_4 3)))
 (let (($x3773 (= cell_1_4 2)))
 (let (($x1402 (= cell_1_4 1)))
 (or $x1402 $x3773 $x294 $x2613 $x2752 $x2849 $x3449 $x2122 $x2785)))))))))))
(assert
 (let (($x491 (= cell_2_4 9)))
 (let (($x2294 (= cell_2_4 8)))
 (let (($x629 (= cell_2_4 7)))
 (let (($x3114 (= cell_2_4 6)))
 (let (($x1719 (= cell_2_4 5)))
 (let (($x589 (= cell_2_4 4)))
 (let (($x1659 (= cell_2_4 3)))
 (let (($x992 (= cell_2_4 2)))
 (let (($x3567 (= cell_2_4 1)))
 (or $x3567 $x992 $x1659 $x589 $x1719 $x3114 $x629 $x2294 $x491)))))))))))
(assert
 (let (($x1373 (= cell_3_4 9)))
 (let (($x630 (= cell_3_4 8)))
 (let (($x1978 (= cell_3_4 7)))
 (let (($x1131 (= cell_3_4 6)))
 (let (($x3134 (= cell_3_4 5)))
 (let (($x1099 (= cell_3_4 4)))
 (let (($x126 (= cell_3_4 3)))
 (let (($x2557 (= cell_3_4 2)))
 (let (($x2397 (= cell_3_4 1)))
 (or $x2397 $x2557 $x126 $x1099 $x3134 $x1131 $x1978 $x630 $x1373)))))))))))
(assert
 (let (($x2043 (= cell_4_4 2)))
 (or (= cell_4_4 1) $x2043 (= cell_4_4 3) (= cell_4_4 4) (= cell_4_4 5) (= cell_4_4 6) (= cell_4_4 7) (= cell_4_4 8) (= cell_4_4 9))))
(assert
 (let (($x1282 (= cell_5_4 9)))
 (let (($x1342 (= cell_5_4 8)))
 (let (($x50 (= cell_5_4 7)))
 (let (($x1613 (= cell_5_4 6)))
 (let (($x3098 (= cell_5_4 5)))
 (let (($x635 (= cell_5_4 4)))
 (let (($x775 (= cell_5_4 3)))
 (let (($x946 (= cell_5_4 2)))
 (let (($x3683 (= cell_5_4 1)))
 (or $x3683 $x946 $x775 $x635 $x3098 $x1613 $x50 $x1342 $x1282)))))))))))
(assert
 (let (($x1666 (= cell_6_4 9)))
 (let (($x1661 (= cell_6_4 8)))
 (let (($x2108 (= cell_6_4 7)))
 (let (($x1025 (= cell_6_4 6)))
 (let (($x3278 (= cell_6_4 5)))
 (let (($x2522 (= cell_6_4 4)))
 (let (($x1805 (= cell_6_4 3)))
 (let (($x1503 (= cell_6_4 2)))
 (let (($x2235 (= cell_6_4 1)))
 (or $x2235 $x1503 $x1805 $x2522 $x3278 $x1025 $x2108 $x1661 $x1666)))))))))))
(assert
 (let (($x2099 (= cell_7_4 1)))
 (or $x2099 (= cell_7_4 2) (= cell_7_4 3) (= cell_7_4 4) (= cell_7_4 5) (= cell_7_4 6) (= cell_7_4 7) (= cell_7_4 8) (= cell_7_4 9))))
(assert
 (let (($x1662 (= cell_8_4 9)))
 (let (($x2428 (= cell_8_4 8)))
 (let (($x2068 (= cell_8_4 7)))
 (let (($x624 (= cell_8_4 6)))
 (let (($x1291 (= cell_8_4 5)))
 (let (($x1832 (= cell_8_4 4)))
 (let (($x2734 (= cell_8_4 3)))
 (let (($x728 (= cell_8_4 2)))
 (let (($x21 (= cell_8_4 1)))
 (or $x21 $x728 $x2734 $x1832 $x1291 $x624 $x2068 $x2428 $x1662)))))))))))
(assert
 (let (($x1757 (= cell_9_4 9)))
 (let (($x1875 (= cell_9_4 8)))
 (let (($x1392 (= cell_9_4 7)))
 (let (($x2689 (= cell_9_4 6)))
 (let (($x741 (= cell_9_4 5)))
 (let (($x1293 (= cell_9_4 4)))
 (let (($x593 (= cell_9_4 3)))
 (let (($x926 (= cell_9_4 2)))
 (let (($x3298 (= cell_9_4 1)))
 (or $x3298 $x926 $x593 $x1293 $x741 $x2689 $x1392 $x1875 $x1757)))))))))))
(assert
 (let (($x206 (= cell_1_5 9)))
 (let (($x1323 (= cell_1_5 8)))
 (let (($x398 (= cell_1_5 7)))
 (let (($x1168 (= cell_1_5 6)))
 (let (($x1687 (= cell_1_5 5)))
 (let (($x2163 (= cell_1_5 4)))
 (let (($x1575 (= cell_1_5 3)))
 (let (($x2255 (= cell_1_5 2)))
 (let (($x2321 (= cell_1_5 1)))
 (or $x2321 $x2255 $x1575 $x2163 $x1687 $x1168 $x398 $x1323 $x206)))))))))))
(assert
 (let (($x968 (= cell_2_5 9)))
 (let (($x2857 (= cell_2_5 8)))
 (let (($x1571 (= cell_2_5 7)))
 (let (($x1594 (= cell_2_5 6)))
 (let (($x474 (= cell_2_5 5)))
 (let (($x433 (= cell_2_5 4)))
 (let (($x102 (= cell_2_5 3)))
 (let (($x123 (= cell_2_5 2)))
 (let (($x1739 (= cell_2_5 1)))
 (or $x1739 $x123 $x102 $x433 $x474 $x1594 $x1571 $x2857 $x968)))))))))))
(assert
 (let (($x2230 (= cell_3_5 9)))
 (let (($x3228 (= cell_3_5 8)))
 (let (($x2782 (= cell_3_5 7)))
 (let (($x1192 (= cell_3_5 6)))
 (let (($x1694 (= cell_3_5 5)))
 (let (($x1079 (= cell_3_5 4)))
 (let (($x1005 (= cell_3_5 3)))
 (let (($x1403 (= cell_3_5 2)))
 (let (($x1204 (= cell_3_5 1)))
 (or $x1204 $x1403 $x1005 $x1079 $x1694 $x1192 $x2782 $x3228 $x2230)))))))))))
(assert
 (let (($x469 (= cell_4_5 1)))
 (or $x469 (= cell_4_5 2) (= cell_4_5 3) (= cell_4_5 4) (= cell_4_5 5) (= cell_4_5 6) (= cell_4_5 7) (= cell_4_5 8) (= cell_4_5 9))))
(assert
 (let (($x2170 (= cell_5_5 9)))
 (let (($x2197 (= cell_5_5 8)))
 (let (($x3499 (= cell_5_5 7)))
 (let (($x3002 (= cell_5_5 6)))
 (let (($x1072 (= cell_5_5 5)))
 (let (($x2273 (= cell_5_5 4)))
 (let (($x233 (= cell_5_5 3)))
 (let (($x2910 (= cell_5_5 2)))
 (let (($x1483 (= cell_5_5 1)))
 (or $x1483 $x2910 $x233 $x2273 $x1072 $x3002 $x3499 $x2197 $x2170)))))))))))
(assert
 (let (($x3634 (= cell_6_5 9)))
 (let (($x2985 (= cell_6_5 8)))
 (let (($x2346 (= cell_6_5 7)))
 (let (($x2680 (= cell_6_5 6)))
 (let (($x2647 (= cell_6_5 5)))
 (let (($x285 (= cell_6_5 4)))
 (let (($x847 (= cell_6_5 3)))
 (let (($x541 (= cell_6_5 2)))
 (let (($x538 (= cell_6_5 1)))
 (or $x538 $x541 $x847 $x285 $x2647 $x2680 $x2346 $x2985 $x3634)))))))))))
(assert
 (let (($x1069 (= cell_7_5 9)))
 (let (($x535 (= cell_7_5 8)))
 (let (($x3397 (= cell_7_5 7)))
 (let (($x2326 (= cell_7_5 6)))
 (let (($x1298 (= cell_7_5 5)))
 (let (($x3722 (= cell_7_5 4)))
 (let (($x1037 (= cell_7_5 3)))
 (let (($x141 (= cell_7_5 2)))
 (let (($x811 (= cell_7_5 1)))
 (or $x811 $x141 $x1037 $x3722 $x1298 $x2326 $x3397 $x535 $x1069)))))))))))
(assert
 (let (($x1313 (= cell_8_5 9)))
 (let (($x2109 (= cell_8_5 8)))
 (let (($x1558 (= cell_8_5 7)))
 (let (($x2721 (= cell_8_5 6)))
 (let (($x930 (= cell_8_5 5)))
 (let (($x1012 (= cell_8_5 4)))
 (let (($x2069 (= cell_8_5 3)))
 (let (($x3163 (= cell_8_5 2)))
 (let (($x2789 (= cell_8_5 1)))
 (or $x2789 $x3163 $x2069 $x1012 $x930 $x2721 $x1558 $x2109 $x1313)))))))))))
(assert
 (let (($x2795 (= cell_9_5 2)))
 (or (= cell_9_5 1) $x2795 (= cell_9_5 3) (= cell_9_5 4) (= cell_9_5 5) (= cell_9_5 6) (= cell_9_5 7) (= cell_9_5 8) (= cell_9_5 9))))
(assert
 (let (($x699 (= cell_1_6 2)))
 (or (= cell_1_6 1) $x699 (= cell_1_6 3) (= cell_1_6 4) (= cell_1_6 5) (= cell_1_6 6) (= cell_1_6 7) (= cell_1_6 8) (= cell_1_6 9))))
(assert
 (let (($x2671 (= cell_2_6 1)))
 (or $x2671 (= cell_2_6 2) (= cell_2_6 3) (= cell_2_6 4) (= cell_2_6 5) (= cell_2_6 6) (= cell_2_6 7) (= cell_2_6 8) (= cell_2_6 9))))
(assert
 (let (($x83 (= cell_3_6 9)))
 (let (($x2021 (= cell_3_6 8)))
 (let (($x1608 (= cell_3_6 7)))
 (let (($x2126 (= cell_3_6 6)))
 (let (($x898 (= cell_3_6 5)))
 (let (($x144 (= cell_3_6 4)))
 (let (($x599 (= cell_3_6 3)))
 (let (($x1855 (= cell_3_6 2)))
 (let (($x1759 (= cell_3_6 1)))
 (or $x1759 $x1855 $x599 $x144 $x898 $x2126 $x1608 $x2021 $x83)))))))))))
(assert
 (let (($x1831 (= cell_4_6 2)))
 (let (($x3287 (= cell_4_6 1)))
 (or $x3287 $x1831 (= cell_4_6 3) (= cell_4_6 4) (= cell_4_6 5) (= cell_4_6 6) (= cell_4_6 7) (= cell_4_6 8) (= cell_4_6 9)))))
(assert
 (let (($x3083 (= cell_5_6 9)))
 (let (($x423 (= cell_5_6 8)))
 (let (($x168 (= cell_5_6 7)))
 (let (($x587 (= cell_5_6 6)))
 (let (($x376 (= cell_5_6 5)))
 (let (($x1338 (= cell_5_6 4)))
 (let (($x2146 (= cell_5_6 3)))
 (let (($x13 (= cell_5_6 2)))
 (let (($x849 (= cell_5_6 1)))
 (or $x849 $x13 $x2146 $x1338 $x376 $x587 $x168 $x423 $x3083)))))))))))
(assert
 (let (($x1058 (= cell_6_6 9)))
 (let (($x2931 (= cell_6_6 8)))
 (let (($x1413 (= cell_6_6 7)))
 (let (($x3187 (= cell_6_6 6)))
 (let (($x2853 (= cell_6_6 5)))
 (let (($x1134 (= cell_6_6 4)))
 (let (($x215 (= cell_6_6 3)))
 (let (($x1073 (= cell_6_6 2)))
 (let (($x2352 (= cell_6_6 1)))
 (or $x2352 $x1073 $x215 $x1134 $x2853 $x3187 $x1413 $x2931 $x1058)))))))))))
(assert
 (let (($x154 (= cell_7_6 9)))
 (let (($x774 (= cell_7_6 8)))
 (let (($x2095 (= cell_7_6 7)))
 (let (($x2477 (= cell_7_6 6)))
 (let (($x1900 (= cell_7_6 5)))
 (let (($x2771 (= cell_7_6 4)))
 (let (($x2227 (= cell_7_6 3)))
 (let (($x1369 (= cell_7_6 2)))
 (let (($x93 (= cell_7_6 1)))
 (or $x93 $x1369 $x2227 $x2771 $x1900 $x2477 $x2095 $x774 $x154)))))))))))
(assert
 (let (($x2240 (= cell_8_6 9)))
 (let (($x109 (= cell_8_6 8)))
 (let (($x2666 (= cell_8_6 7)))
 (let (($x2837 (= cell_8_6 6)))
 (let (($x419 (= cell_8_6 5)))
 (let (($x2231 (= cell_8_6 4)))
 (let (($x1521 (= cell_8_6 3)))
 (let (($x2934 (= cell_8_6 2)))
 (let (($x837 (= cell_8_6 1)))
 (or $x837 $x2934 $x1521 $x2231 $x419 $x2837 $x2666 $x109 $x2240)))))))))))
(assert
 (let (($x905 (= cell_9_6 9)))
 (let (($x370 (= cell_9_6 8)))
 (let (($x617 (= cell_9_6 7)))
 (let (($x3762 (= cell_9_6 6)))
 (let (($x947 (= cell_9_6 5)))
 (let (($x1408 (= cell_9_6 4)))
 (let (($x794 (= cell_9_6 3)))
 (let (($x1953 (= cell_9_6 2)))
 (let (($x1429 (= cell_9_6 1)))
 (or $x1429 $x1953 $x794 $x1408 $x947 $x3762 $x617 $x370 $x905)))))))))))
(assert
 (let (($x1823 (= cell_1_7 9)))
 (let (($x161 (= cell_1_7 8)))
 (let (($x437 (= cell_1_7 7)))
 (let (($x316 (= cell_1_7 6)))
 (let (($x990 (= cell_1_7 5)))
 (let (($x3590 (= cell_1_7 4)))
 (let (($x618 (= cell_1_7 3)))
 (let (($x1589 (= cell_1_7 2)))
 (let (($x428 (= cell_1_7 1)))
 (or $x428 $x1589 $x618 $x3590 $x990 $x316 $x437 $x161 $x1823)))))))))))
(assert
 (let (($x381 (= cell_2_7 9)))
 (let (($x2935 (= cell_2_7 8)))
 (let (($x2113 (= cell_2_7 7)))
 (let (($x2918 (= cell_2_7 6)))
 (let (($x1716 (= cell_2_7 5)))
 (let (($x3154 (= cell_2_7 4)))
 (let (($x1210 (= cell_2_7 3)))
 (let (($x2539 (= cell_2_7 2)))
 (let (($x151 (= cell_2_7 1)))
 (or $x151 $x2539 $x1210 $x3154 $x1716 $x2918 $x2113 $x2935 $x381)))))))))))
(assert
 (let (($x876 (= cell_3_7 9)))
 (let (($x1252 (= cell_3_7 8)))
 (let (($x1271 (= cell_3_7 7)))
 (let (($x840 (= cell_3_7 6)))
 (let (($x1637 (= cell_3_7 5)))
 (let (($x250 (= cell_3_7 4)))
 (let (($x2349 (= cell_3_7 3)))
 (let (($x1022 (= cell_3_7 2)))
 (let (($x2650 (= cell_3_7 1)))
 (or $x2650 $x1022 $x2349 $x250 $x1637 $x840 $x1271 $x1252 $x876)))))))))))
(assert
 (let (($x732 (= cell_4_7 9)))
 (let (($x2332 (= cell_4_7 8)))
 (let (($x2445 (= cell_4_7 7)))
 (let (($x920 (= cell_4_7 6)))
 (let (($x1740 (= cell_4_7 5)))
 (let (($x2457 (= cell_4_7 4)))
 (let (($x225 (= cell_4_7 3)))
 (let (($x2938 (= cell_4_7 2)))
 (let (($x3915 (= cell_4_7 1)))
 (or $x3915 $x2938 $x225 $x2457 $x1740 $x920 $x2445 $x2332 $x732)))))))))))
(assert
 (let (($x797 (= cell_5_7 9)))
 (let (($x3435 (= cell_5_7 8)))
 (let (($x1064 (= cell_5_7 7)))
 (let (($x1994 (= cell_5_7 6)))
 (let (($x1789 (= cell_5_7 5)))
 (let (($x3507 (= cell_5_7 4)))
 (let (($x2141 (= cell_5_7 3)))
 (let (($x1163 (= cell_5_7 2)))
 (let (($x2844 (= cell_5_7 1)))
 (or $x2844 $x1163 $x2141 $x3507 $x1789 $x1994 $x1064 $x3435 $x797)))))))))))
(assert
 (let (($x590 (= cell_6_7 9)))
 (let (($x1839 (= cell_6_7 8)))
 (let (($x545 (= cell_6_7 7)))
 (let (($x2656 (= cell_6_7 6)))
 (let (($x332 (= cell_6_7 5)))
 (let (($x1510 (= cell_6_7 4)))
 (let (($x988 (= cell_6_7 3)))
 (let (($x3099 (= cell_6_7 2)))
 (let (($x832 (= cell_6_7 1)))
 (or $x832 $x3099 $x988 $x1510 $x332 $x2656 $x545 $x1839 $x590)))))))))))
(assert
 (let (($x680 (= cell_7_7 9)))
 (let (($x1236 (= cell_7_7 8)))
 (let (($x1189 (= cell_7_7 7)))
 (let (($x7994 (= cell_7_7 6)))
 (let (($x67 (= cell_7_7 5)))
 (let (($x2271 (= cell_7_7 4)))
 (let (($x2081 (= cell_7_7 3)))
 (let (($x3450 (= cell_7_7 2)))
 (let (($x1957 (= cell_7_7 1)))
 (or $x1957 $x3450 $x2081 $x2271 $x67 $x7994 $x1189 $x1236 $x680)))))))))))
(assert
 (let (($x1566 (= cell_8_7 2)))
 (or (= cell_8_7 1) $x1566 (= cell_8_7 3) (= cell_8_7 4) (= cell_8_7 5) (= cell_8_7 6) (= cell_8_7 7) (= cell_8_7 8) (= cell_8_7 9))))
(assert
 (let (($x224 (= cell_9_7 1)))
 (or $x224 (= cell_9_7 2) (= cell_9_7 3) (= cell_9_7 4) (= cell_9_7 5) (= cell_9_7 6) (= cell_9_7 7) (= cell_9_7 8) (= cell_9_7 9))))
(assert
 (let (($x3235 (= cell_1_8 9)))
 (let (($x1467 (= cell_1_8 8)))
 (let (($x867 (= cell_1_8 7)))
 (let (($x2172 (= cell_1_8 6)))
 (let (($x78 (= cell_1_8 5)))
 (let (($x824 (= cell_1_8 4)))
 (let (($x874 (= cell_1_8 3)))
 (let (($x785 (= cell_1_8 2)))
 (let (($x1901 (= cell_1_8 1)))
 (or $x1901 $x785 $x874 $x824 $x78 $x2172 $x867 $x1467 $x3235)))))))))))
(assert
 (let (($x1778 (= cell_2_8 2)))
 (or (= cell_2_8 1) $x1778 (= cell_2_8 3) (= cell_2_8 4) (= cell_2_8 5) (= cell_2_8 6) (= cell_2_8 7) (= cell_2_8 8) (= cell_2_8 9))))
(assert
 (let (($x3812 (= cell_3_8 9)))
 (let (($x549 (= cell_3_8 8)))
 (let (($x3598 (= cell_3_8 7)))
 (let (($x2139 (= cell_3_8 6)))
 (let (($x1107 (= cell_3_8 5)))
 (let (($x1346 (= cell_3_8 4)))
 (let (($x1536 (= cell_3_8 3)))
 (let (($x2143 (= cell_3_8 2)))
 (let (($x3713 (= cell_3_8 1)))
 (or $x3713 $x2143 $x1536 $x1346 $x1107 $x2139 $x3598 $x549 $x3812)))))))))))
(assert
 (let (($x548 (= cell_4_8 9)))
 (let (($x2156 (= cell_4_8 8)))
 (let (($x3391 (= cell_4_8 7)))
 (let (($x421 (= cell_4_8 6)))
 (let (($x231 (= cell_4_8 5)))
 (let (($x3036 (= cell_4_8 4)))
 (let (($x2239 (= cell_4_8 3)))
 (let (($x958 (= cell_4_8 2)))
 (let (($x1844 (= cell_4_8 1)))
 (or $x1844 $x958 $x2239 $x3036 $x231 $x421 $x3391 $x2156 $x548)))))))))))
(assert
 (let (($x504 (= cell_5_8 1)))
 (or $x504 (= cell_5_8 2) (= cell_5_8 3) (= cell_5_8 4) (= cell_5_8 5) (= cell_5_8 6) (= cell_5_8 7) (= cell_5_8 8) (= cell_5_8 9))))
(assert
 (let (($x2523 (= cell_6_8 9)))
 (let (($x1314 (= cell_6_8 8)))
 (let (($x2047 (= cell_6_8 7)))
 (let (($x927 (= cell_6_8 6)))
 (let (($x936 (= cell_6_8 5)))
 (let (($x2104 (= cell_6_8 4)))
 (let (($x1478 (= cell_6_8 3)))
 (let (($x1247 (= cell_6_8 2)))
 (let (($x2485 (= cell_6_8 1)))
 (or $x2485 $x1247 $x1478 $x2104 $x936 $x927 $x2047 $x1314 $x2523)))))))))))
(assert
 (let (($x337 (= cell_7_8 9)))
 (let (($x1934 (= cell_7_8 8)))
 (let (($x2730 (= cell_7_8 7)))
 (let (($x1867 (= cell_7_8 6)))
 (let (($x1352 (= cell_7_8 5)))
 (let (($x694 (= cell_7_8 4)))
 (let (($x257 (= cell_7_8 3)))
 (let (($x3105 (= cell_7_8 2)))
 (let (($x2499 (= cell_7_8 1)))
 (or $x2499 $x3105 $x257 $x694 $x1352 $x1867 $x2730 $x1934 $x337)))))))))))
(assert
 (let (($x959 (= cell_8_8 9)))
 (let (($x784 (= cell_8_8 8)))
 (let (($x2437 (= cell_8_8 7)))
 (let (($x1997 (= cell_8_8 6)))
 (let (($x2850 (= cell_8_8 5)))
 (let (($x2356 (= cell_8_8 4)))
 (let (($x108 (= cell_8_8 3)))
 (let (($x2915 (= cell_8_8 2)))
 (let (($x1641 (= cell_8_8 1)))
 (or $x1641 $x2915 $x108 $x2356 $x2850 $x1997 $x2437 $x784 $x959)))))))))))
(assert
 (let (($x300 (= cell_9_8 2)))
 (let (($x584 (= cell_9_8 1)))
 (or $x584 $x300 (= cell_9_8 3) (= cell_9_8 4) (= cell_9_8 5) (= cell_9_8 6) (= cell_9_8 7) (= cell_9_8 8) (= cell_9_8 9)))))
(assert
 (let (($x2987 (= cell_1_9 9)))
 (let (($x2285 (= cell_1_9 8)))
 (let (($x2880 (= cell_1_9 7)))
 (let (($x1623 (= cell_1_9 6)))
 (let (($x4119 (= cell_1_9 5)))
 (let (($x430 (= cell_1_9 4)))
 (let (($x911 (= cell_1_9 3)))
 (let (($x1703 (= cell_1_9 2)))
 (let (($x1090 (= cell_1_9 1)))
 (or $x1090 $x1703 $x911 $x430 $x4119 $x1623 $x2880 $x2285 $x2987)))))))))))
(assert
 (let (($x1049 (= cell_2_9 9)))
 (let (($x314 (= cell_2_9 8)))
 (let (($x71 (= cell_2_9 7)))
 (let (($x1748 (= cell_2_9 6)))
 (let (($x2760 (= cell_2_9 5)))
 (let (($x719 (= cell_2_9 4)))
 (let (($x2472 (= cell_2_9 3)))
 (let (($x3779 (= cell_2_9 2)))
 (let (($x3847 (= cell_2_9 1)))
 (or $x3847 $x3779 $x2472 $x719 $x2760 $x1748 $x71 $x314 $x1049)))))))))))
(assert
 (let (($x2687 (= cell_3_9 1)))
 (or $x2687 (= cell_3_9 2) (= cell_3_9 3) (= cell_3_9 4) (= cell_3_9 5) (= cell_3_9 6) (= cell_3_9 7) (= cell_3_9 8) (= cell_3_9 9))))
(assert
 (let (($x1354 (= cell_4_9 9)))
 (let (($x28 (= cell_4_9 8)))
 (let (($x2103 (= cell_4_9 7)))
 (let (($x2562 (= cell_4_9 6)))
 (let (($x1066 (= cell_4_9 5)))
 (let (($x1935 (= cell_4_9 4)))
 (let (($x2426 (= cell_4_9 3)))
 (let (($x1026 (= cell_4_9 2)))
 (let (($x7 (= cell_4_9 1)))
 (or $x7 $x1026 $x2426 $x1935 $x1066 $x2562 $x2103 $x28 $x1354)))))))))))
(assert
 (let (($x763 (= cell_5_9 9)))
 (let (($x131 (= cell_5_9 8)))
 (let (($x2798 (= cell_5_9 7)))
 (let (($x1624 (= cell_5_9 6)))
 (let (($x1186 (= cell_5_9 5)))
 (let (($x3284 (= cell_5_9 4)))
 (let (($x1164 (= cell_5_9 3)))
 (let (($x2589 (= cell_5_9 2)))
 (let (($x2496 (= cell_5_9 1)))
 (or $x2496 $x2589 $x1164 $x3284 $x1186 $x1624 $x2798 $x131 $x763)))))))))))
(assert
 (let (($x2009 (= cell_6_9 2)))
 (or (= cell_6_9 1) $x2009 (= cell_6_9 3) (= cell_6_9 4) (= cell_6_9 5) (= cell_6_9 6) (= cell_6_9 7) (= cell_6_9 8) (= cell_6_9 9))))
(assert
 (let (($x1903 (= cell_7_9 9)))
 (let (($x861 (= cell_7_9 8)))
 (let (($x1246 (= cell_7_9 7)))
 (let (($x2932 (= cell_7_9 6)))
 (let (($x2576 (= cell_7_9 5)))
 (let (($x1568 (= cell_7_9 4)))
 (let (($x976 (= cell_7_9 3)))
 (let (($x2120 (= cell_7_9 2)))
 (let (($x1982 (= cell_7_9 1)))
 (or $x1982 $x2120 $x976 $x1568 $x2576 $x2932 $x1246 $x861 $x1903)))))))))))
(assert
 (let (($x365 (= cell_8_9 9)))
 (let (($x238 (= cell_8_9 8)))
 (let (($x1584 (= cell_8_9 7)))
 (let (($x2906 (= cell_8_9 6)))
 (let (($x3735 (= cell_8_9 5)))
 (let (($x3806 (= cell_8_9 4)))
 (let (($x3484 (= cell_8_9 3)))
 (let (($x2514 (= cell_8_9 2)))
 (let (($x1995 (= cell_8_9 1)))
 (or $x1995 $x2514 $x3484 $x3806 $x3735 $x2906 $x1584 $x238 $x365)))))))))))
(assert
 (let (($x713 (= cell_9_9 2)))
 (let (($x391 (= cell_9_9 1)))
 (or $x391 $x713 (= cell_9_9 3) (= cell_9_9 4) (= cell_9_9 5) (= cell_9_9 6) (= cell_9_9 7) (= cell_9_9 8) (= cell_9_9 9)))))
(assert
 (and (distinct cell_1_1 cell_1_2 cell_1_3 cell_1_4 cell_1_5 cell_1_6 cell_1_7 cell_1_8 cell_1_9) true))
(assert
 (and (distinct cell_2_1 cell_2_2 cell_2_3 cell_2_4 cell_2_5 cell_2_6 cell_2_7 cell_2_8 cell_2_9) true))
(assert
 (and (distinct cell_3_1 cell_3_2 cell_3_3 cell_3_4 cell_3_5 cell_3_6 cell_3_7 cell_3_8 cell_3_9) true))
(assert
 (and (distinct cell_4_1 cell_4_2 cell_4_3 cell_4_4 cell_4_5 cell_4_6 cell_4_7 cell_4_8 cell_4_9) true))
(assert
 (and (distinct cell_5_1 cell_5_2 cell_5_3 cell_5_4 cell_5_5 cell_5_6 cell_5_7 cell_5_8 cell_5_9) true))
(assert
 (and (distinct cell_6_1 cell_6_2 cell_6_3 cell_6_4 cell_6_5 cell_6_6 cell_6_7 cell_6_8 cell_6_9) true))
(assert
 (and (distinct cell_7_1 cell_7_2 cell_7_3 cell_7_4 cell_7_5 cell_7_6 cell_7_7 cell_7_8 cell_7_9) true))
(assert
 (and (distinct cell_8_1 cell_8_2 cell_8_3 cell_8_4 cell_8_5 cell_8_6 cell_8_7 cell_8_8 cell_8_9) true))
(assert
 (and (distinct cell_9_1 cell_9_2 cell_9_3 cell_9_4 cell_9_5 cell_9_6 cell_9_7 cell_9_8 cell_9_9) true))
(assert
 (and (distinct cell_1_1 cell_2_1 cell_3_1 cell_4_1 cell_5_1 cell_6_1 cell_7_1 cell_8_1 cell_9_1) true))
(assert
 (and (distinct cell_1_2 cell_2_2 cell_3_2 cell_4_2 cell_5_2 cell_6_2 cell_7_2 cell_8_2 cell_9_2) true))
(assert
 (and (distinct cell_1_3 cell_2_3 cell_3_3 cell_4_3 cell_5_3 cell_6_3 cell_7_3 cell_8_3 cell_9_3) true))
(assert
 (and (distinct cell_1_4 cell_2_4 cell_3_4 cell_4_4 cell_5_4 cell_6_4 cell_7_4 cell_8_4 cell_9_4) true))
(assert
 (and (distinct cell_1_5 cell_2_5 cell_3_5 cell_4_5 cell_5_5 cell_6_5 cell_7_5 cell_8_5 cell_9_5) true))
(assert
 (and (distinct cell_1_6 cell_2_6 cell_3_6 cell_4_6 cell_5_6 cell_6_6 cell_7_6 cell_8_6 cell_9_6) true))
(assert
 (and (distinct cell_1_7 cell_2_7 cell_3_7 cell_4_7 cell_5_7 cell_6_7 cell_7_7 cell_8_7 cell_9_7) true))
(assert
 (and (distinct cell_1_8 cell_2_8 cell_3_8 cell_4_8 cell_5_8 cell_6_8 cell_7_8 cell_8_8 cell_9_8) true))
(assert
 (and (distinct cell_1_9 cell_2_9 cell_3_9 cell_4_9 cell_5_9 cell_6_9 cell_7_9 cell_8_9 cell_9_9) true))
(assert
 (and (distinct cell_1_1 cell_1_2 cell_1_3 cell_2_1 cell_2_2 cell_2_3 cell_3_1 cell_3_2 cell_3_3) true))
(assert
 (and (distinct cell_1_4 cell_1_5 cell_1_6 cell_2_4 cell_2_5 cell_2_6 cell_3_4 cell_3_5 cell_3_6) true))
(assert
 (and (distinct cell_1_7 cell_1_8 cell_1_9 cell_2_7 cell_2_8 cell_2_9 cell_3_7 cell_3_8 cell_3_9) true))
(assert
 (and (distinct cell_4_1 cell_4_2 cell_4_3 cell_5_1 cell_5_2 cell_5_3 cell_6_1 cell_6_2 cell_6_3) true))
(assert
 (and (distinct cell_4_4 cell_4_5 cell_4_6 cell_5_4 cell_5_5 cell_5_6 cell_6_4 cell_6_5 cell_6_6) true))
(assert
 (and (distinct cell_4_7 cell_4_8 cell_4_9 cell_5_7 cell_5_8 cell_5_9 cell_6_7 cell_6_8 cell_6_9) true))
(assert
 (and (distinct cell_7_1 cell_7_2 cell_7_3 cell_8_1 cell_8_2 cell_8_3 cell_9_1 cell_9_2 cell_9_3) true))
(assert
 (and (distinct cell_7_4 cell_7_5 cell_7_6 cell_8_4 cell_8_5 cell_8_6 cell_9_4 cell_9_5 cell_9_6) true))
(assert
 (and (distinct cell_7_7 cell_7_8 cell_7_9 cell_8_7 cell_8_8 cell_8_9 cell_9_7 cell_9_8 cell_9_9) true))
(assert
 (let (($x400 (and (distinct cell_5_9 cell_6_8 cell_7_7 cell_8_6) true)))
 (let (($x2685 (and (distinct cell_2_9 cell_3_8 cell_4_7 cell_5_6 cell_6_5 cell_7_4 cell_8_3 cell_9_2) true)))
 (let (($x2452 (and (distinct cell_1_8 cell_2_7 cell_3_6 cell_4_5 cell_5_4 cell_6_3 cell_7_2 cell_8_1) true)))
 (let (($x1336 (and (distinct cell_1_5 cell_2_4 cell_3_3 cell_4_2) true)))
 (let (($x1803 (and (distinct cell_5_1 cell_6_2 cell_7_3 cell_8_4) true)))
 (let (($x1016 (and (distinct cell_2_1 cell_3_2 cell_4_3 cell_5_4 cell_6_5 cell_7_6 cell_8_7 cell_9_8) true)))
 (let (($x3234 (and (distinct cell_1_2 cell_2_3 cell_3_4 cell_4_5 cell_5_6 cell_6_7 cell_7_8 cell_8_9) true)))
 (let (($x1755 (and (distinct cell_1_5 cell_2_6 cell_3_7 cell_4_8) true)))
 (and $x1755 $x3234 $x1016 $x1803 $x1336 $x2452 $x2685 $x400))))))))))
(assert
 (= cell_1_4 3))
(check-sat)
